c User generated cnf file
p cnf 14 22
6 4 -14 0 
10 -3 11 0 
4 -6 13 0 
8 2 -8 0 
1 11 -5 0 
10 8 -14 0 
-5 6 13 0 
-4 6 2 0 
-14 6 7 0 
-11 9 4 0 
-13 5 4 0 
3 5 -14 0 
-4 12 11 0 
-7 8 12 0 
12 11 -1 0 
6 2 -13 0 
14 11 -8 0 
8 -3 6 0 
7 -14 5 0 
12 5 -1 0 
10 11 -5 0 
8 -8 8 0 
